p edge 400 1986
1 293
1 207
1 256
1 393
1 2
2 3
2 162
2 5
2 227
2 64
3 143
3 4
3 273
3 376
3 289
4 155
4 5
4 365
4 221
4 367
5 7
5 6
5 338
5 379
5 202
6 30
6 227
6 7
6 102
6 336
7 206
7 178
7 169
7 8
7 52
8 256
8 9
8 390
8 74
8 234
9 10
9 177
9 52
9 41
9 115
10 213
10 243
10 11
10 186
10 359
11 263
11 199
11 12
11 277
11 15
12 52
12 366
12 13
12 258
12 287
13 260
13 215
13 63
13 14
13 313
14 158
14 221
14 15
14 119
14 45
15 387
15 35
15 16
15 126
15 108
16 129
16 5
16 30
16 348
16 17
17 216
17 129
17 18
17 128
17 184
18 315
18 253
18 369
18 19
18 394
19 321
19 20
19 192
19 5
19 29
20 185
20 176
20 30
20 174
20 21
21 22
21 219
21 62
21 393
21 157
22 357
22 92
22 294
22 375
22 23
23 256
23 157
23 134
23 24
23 168
24 344
24 133
24 341
24 25
24 89
25 127
25 26
25 63
25 364
25 228
26 312
26 332
26 337
26 27
27 140
27 3
27 344
27 327
27 28
28 125
28 265
28 247
28 29
28 275
29 313
29 30
29 239
29 242
29 290
30 31
30 313
30 68
30 216
30 282
31 32
31 318
31 338
31 33
31 241
32 109
32 397
32 215
32 33
32 230
33 94
33 8
33 34
33 364
33 179
34 1
34 35
34 319
34 237
34 287
35 198
35 4
35 31
35 7
35 36
36 312
36 240
36 134
36 270
36 37
37 220
37 190
37 38
37 69
37 376
38 218
38 348
38 88
38 39
38 217
39 76
39 40
39 233
39 73
39 337
40 249
40 41
40 46
40 171
40 113
41 315
41 42
41 92
41 326
41 86
42 127
42 43
42 319
42 351
42 282
43 266
43 218
43 44
43 54
43 386
44 277
44 91
44 187
44 81
44 45
45 361
45 55
45 240
45 46
45 56
46 116
46 249
46 47
46 354
46 76
47 372
47 77
47 234
47 48
47 292
48 49
48 164
48 302
48 384
48 260
49 255
49 132
49 378
49 369
49 50
50 38
50 161
50 51
50 66
50 353
51 52
51 171
51 85
51 330
51 69
52 147
52 124
52 223
52 53
52 297
53 60
53 22
53 54
53 158
53 148
54 55
54 273
54 16
54 157
54 279
55 198
55 341
55 43
55 56
55 82
56 313
56 173
56 57
56 354
56 262
57 226
57 24
57 146
57 359
57 58
58 59
58 191
58 296
58 70
58 245
59 310
59 327
59 51
59 60
59 343
60 324
60 223
60 61
60 152
60 33
61 398
61 62
61 168
61 186
61 272
62 81
62 380
62 74
62 63
62 159
63 143
63 12
63 64
63 113
63 184
64 186
64 65
64 67
64 391
64 198
65 78
65 116
65 100
65 314
65 66
66 337
66 67
66 386
66 181
67 357
67 221
67 332
67 68
67 149
68 369
68 47
68 69
68 332
68 79
69 70
69 77
69 95
69 97
69 141
70 119
70 270
70 84
70 71
70 95
71 330
71 300
71 316
71 72
71 331
72 135
72 272
72 10
72 215
72 73
73 188
73 147
73 170
73 74
73 45
74 210
74 361
74 75
74 146
74 292
75 305
75 76
75 145
75 123
75 107
76 77
76 182
76 294
76 175
76 324
77 379
77 78
77 229
77 59
77 289
78 79
78 245
78 141
78 135
78 340
79 276
79 169
79 317
79 36
79 80
80 81
80 193
80 389
80 169
80 159
81 290
81 259
81 21
81 82
81 368
82 154
82 83
82 195
82 86
82 389
83 84
83 258
83 385
83 373
83 7
84 59
84 303
84 323
84 85
84 6
85 119
85 172
85 86
85 112
85 195
86 216
86 130
86 363
86 87
86 122
87 95
87 88
87 270
87 201
87 386
88 276
88 395
88 373
88 89
88 195
89 164
89 328
89 119
89 282
89 90
90 216
90 91
90 98
90 296
91 92
91 337
91 275
91 323
91 372
92 160
92 13
92 143
92 93
92 18
93 385
93 264
93 104
93 304
93 94
94 222
94 95
94 9
94 97
94 65
95 85
95 96
95 151
95 40
95 227
96 264
96 265
96 238
96 97
96 335
97 124
97 180
97 189
97 98
97 394
98 325
98 99
98 335
98 283
98 165
99 272
99 224
99 20
99 270
99 100
100 101
100 211
100 273
100 30
100 330
101 172
101 315
101 219
101 102
101 280
102 171
102 103
102 41
102 325
102 121
103 10
103 176
103 104
103 333
103 179
104 2
104 201
104 105
104 147
104 326
105 88
105 26
105 38
105 106
105 310
106 107
106 6
106 30
106 167
106 95
107 108
107 200
107 156
107 235
107 144
108 310
108 192
108 100
108 366
108 109
109 188
109 133
109 110
109 18
110 279
110 309
110 399
110 111
110 282
111 112
111 189
111 347
111 6
111 91
112 392
112 113
112 269
112 126
112 351
113 378
113 399
113 20
113 106
113 114
114 115
114 75
114 172
114 258
114 38
115 288
115 184
115 53
115 116
115 254
116 153
116 199
116 117
116 309
116 59
117 118
117 233
117 197
117 279
117 108
118 119
118 95
118 358
118 133
118 53
119 161
119 208
119 120
119 202
119 233
120 132
120 272
120 236
120 121
120 42
121 122
121 2
121 286
121 312
121 19
122 328
122 182
122 123
122 86
122 358
123 124
123 152
123 318
123 355
123 133
124 78
124 92
124 58
124 125
125 118
125 124
125 172
125 263
125 126
126 194
126 127
126 245
126 394
126 129
127 230
127 167
127 284
127 17
127 128
128 129
128 190
128 31
128 34
128 125
129 348
129 205
129 158
129 124
129 130
130 131
130 349
130 49
130 256
130 223
131 132
131 189
131 159
131 14
131 150
132 275
132 40
132 133
132 239
132 270
133 241
133 347
133 79
133 134
133 198
134 330
134 3
134 135
134 49
134 55
135 185
135 361
135 280
135 136
135 119
136 137
136 38
136 173
136 260
136 383
137 195
137 138
137 34
137 248
137 55
138 165
138 139
138 371
138 257
138 205
139 343
139 140
139 225
139 126
139 298
140 141
140 383
140 37
140 307
140 97
141 241
141 360
141 109
141 145
141 142
142 152
142 143
142 166
142 167
142 169
143 40
143 148
143 172
143 144
143 82
144 124
144 145
144 44
144 236
144 288
145 237
145 328
145 81
145 286
145 146
146 15
146 115
146 127
146 147
146 275
147 148
147 204
147 200
147 14
147 51
148 336
148 235
148 149
148 285
148 127
149 18
149 124
149 150
149 210
149 289
150 151
150 357
150 17
150 5
150 156
151 41
151 129
151 152
151 375
151 324
152 315
152 153
152 320
152 294
152 386
153 261
153 35
153 250
153 154
154 20
154 195
154 155
154 360
154 13
155 156
155 15
155 58
155 163
155 219
156 217
156 290
156 178
156 76
156 157
157 158
157 250
157 306
157 282
157 359
158 159
158 239
158 307
158 178
158 337
159 297
159 294
159 35
159 160
159 48
160 172
160 376
160 356
160 266
160 161
161 390
161 162
161 308
161 237
161 362
162 163
162 390
162 57
162 294
162 125
163 88
163 164
163 299
163 126
163 180
164 272
164 360
164 283
164 121
164 165
165 382
165 157
165 308
165 166
165 390
166 360
166 142
166 313
166 167
167 199
167 230
167 179
167 245
167 168
168 169
168 359
168 226
168 69
168 345
169 170
169 84
169 81
169 309
169 4
170 17
170 311
170 171
170 354
170 144
171 147
171 12
171 157
171 172
171 93
172 134
172 220
172 173
172 235
172 198
173 19
173 174
173 108
173 53
173 169
174 175
174 56
174 238
174 303
174 18
175 81
175 342
175 359
175 335
175 176
176 333
176 177
176 126
176 33
176 144
177 178
177 53
177 60
177 284
177 202
178 379
178 383
178 13
178 179
178 348
179 216
179 91
179 180
179 320
179 191
180 309
180 86
180 272
180 181
180 342
181 249
181 334
181 182
181 315
181 308
182 183
182 179
182 259
182 147
182 38
183 184
183 18
183 202
183 195
183 70
184 187
184 362
184 185
184 248
184 217
185 109
185 189
185 242
185 186
185 141
186 216
186 187
186 272
186 159
186 280
187 102
187 188
187 152
187 19
187 78
188 38
188 346
188 199
188 189
188 252
189 75
189 20
189 399
189 190
189 345
190 6
190 137
190 241
190 191
190 293
191 265
191 134
191 285
191 383
191 192
192 314
192 193
192 236
192 358
192 286
193 24
193 337
193 194
193 294
193 319
194 195
194 338
194 138
194 129
194 351
195 276
195 38
195 196
195 353
195 364
196 64
196 115
196 336
196 40
196 197
197 198
197 7
197 335
197 16
197 254
198 6
198 65
198 241
198 89
198 199
199 345
199 197
199 39
199 284
199 200
200 320
200 201
200 130
200 255
200 84
201 247
201 387
201 215
201 202
201 160
202 187
202 203
202 37
202 384
202 159
203 283
203 201
203 167
203 204
204 205
204 76
204 174
204 293
204 359
205 141
205 206
205 268
205 118
205 378
206 396
206 207
206 345
206 215
206 156
207 213
207 109
207 243
207 208
207 346
208 209
208 64
208 17
208 162
208 253
209 121
209 210
209 330
209 98
209 198
210 211
210 231
210 382
210 146
210 291
211 212
211 273
211 31
211 291
211 265
212 213
212 337
212 302
212 157
212 205
213 332
213 156
213 214
213 367
213 252
214 185
214 91
214 215
214 152
214 218
215 270
215 141
215 98
215 260
215 216
216 217
216 260
216 380
216 65
216 237
217 192
217 315
217 258
217 218
217 269
218 31
218 97
218 219
218 79
218 193
219 103
219 283
219 192
219 220
220 198
220 299
220 221
220 165
220 288
221 8
221 208
221 136
221 222
221 327
222 177
222 264
222 274
222 254
222 223
223 383
223 258
223 114
223 224
223 9
224 141
224 63
224 399
224 103
224 225
225 94
225 226
225 394
225 77
225 298
226 36
226 227
226 24
226 260
226 311
227 236
227 29
227 228
227 386
227 61
228 229
228 232
228 377
228 29
228 311
229 358
229 384
229 230
229 196
229 306
230 231
230 249
230 158
230 121
230 237
231 103
231 41
231 232
231 203
231 327
232 233
232 128
232 119
232 67
232 94
233 278
233 171
233 332
233 234
233 209
234 334
234 138
234 235
234 137
234 305
235 236
235 132
235 181
235 357
235 156
236 326
236 259
236 296
236 171
236 237
237 184
237 297
237 205
237 50
237 238
238 314
238 48
238 239
238 325
238 317
239 240
239 371
239 89
239 327
239 329
240 161
240 241
240 89
240 58
240 297
241 77
241 47
241 242
241 137
241 396
242 58
242 243
242 78
242 142
242 362
243 244
243 78
243 123
243 85
243 367
244 104
244 211
244 79
244 315
244 245
245 73
245 272
245 54
245 246
245 296
246 197
246 12
246 247
246 33
246 109
247 248
247 251
247 345
247 257
247 185
248 398
248 256
248 39
248 249
248 329
249 198
249 17
249 325
249 102
249 250
250 213
250 393
250 355
250 31
250 251
251 252
251 390
251 110
251 280
251 47
252 113
252 86
252 192
252 253
252 99
253 1
253 344
253 343
253 221
253 254
254 255
254 126
254 301
254 345
254 313
255 168
255 179
255 256
255 321
256 257
256 253
256 101
256 12
256 167
257 230
257 327
257 258
257 103
257 181
258 187
258 239
258 64
258 259
258 144
259 215
259 83
259 378
259 260
259 174
260 353
260 117
260 261
260 239
260 107
261 262
261 358
261 36
261 379
261 17
262 263
262 349
262 163
262 40
262 271
263 243
263 264
263 118
263 240
263 367
264 175
264 46
264 265
264 62
264 57
265 266
265 91
265 298
265 6
265 130
266 267
266 36
266 246
266 331
267 209
267 106
267 173
267 154
267 268
268 148
268 269
268 360
268 37
268 92
269 47
269 246
269 57
269 9
269 270
270 272
270 81
270 379
270 271
270 63
271 375
271 228
271 114
271 395
271 272
272 58
272 273
272 234
272 287
272 355
273 283
273 380
273 239
273 274
273 297
274 328
274 275
274 195
274 217
274 363
275 296
275 341
275 355
275 323
275 276
276 380
276 277
276 268
276 311
276 227
277 223
277 389
277 278
277 60
277 73
278 352
278 385
278 279
278 254
278 353
279 270
279 52
279 219
279 132
279 280
280 256
280 33
280 21
280 281
280 305
281 93
281 282
281 34
281 174
281 210
282 292
282 30
282 110
282 165
282 283
283 259
283 340
283 372
283 238
283 284
284 98
284 40
284 147
284 101
284 285
285 286
285 210
285 384
285 186
285 248
286 287
286 275
286 355
286 171
286 288
287 6
287 323
287 84
287 210
287 288
288 26
288 160
288 84
288 76
288 289
289 232
289 201
289 249
289 108
289 290
290 291
290 249
290 194
290 239
290 191
291 75
291 292
291 223
291 331
291 60
292 293
292 237
292 226
292 326
292 91
293 294
293 188
293 144
293 371
294 69
294 30
294 338
294 77
294 295
295 131
295 17
295 296
295 284
295 14
296 125
296 297
296 61
296 141
296 188
297 298
297 36
297 208
297 111
297 43
298 299
298 33
298 393
298 199
298 396
299 196
299 185
299 103
299 231
299 300
300 65
300 140
300 209
300 301
300 47
301 368
301 177
301 95
301 280
301 302
302 249
302 303
302 309
302 325
302 252
303 304
303 44
303 125
303 145
303 374
304 351
304 183
304 318
304 305
304 104
305 115
305 388
305 324
305 294
305 306
306 307
306 288
306 111
306 11
306 58
307 308
307 199
307 234
307 133
307 356
308 376
308 309
308 217
308 50
308 133
309 302
309 387
309 284
309 310
309 83
310 93
310 65
310 84
310 311
310 212
311 171
311 349
311 173
311 190
311 312
312 344
312 168
312 75
312 313
312 303
313 369
313 3
313 99
313 314
313 93
314 289
314 330
314 315
314 389
314 178
315 155
315 316
315 7
315 391
315 292
316 122
316 207
316 317
316 248
316 285
317 235
317 119
317 342
317 27
317 318
318 109
318 69
318 253
318 319
318 219
319 246
319 282
319 320
319 17
319 309
320 154
320 370
320 198
320 131
320 321
321 27
321 214
321 322
321 193
321 156
322 9
322 323
322 19
322 38
322 211
323 234
323 324
323 165
323 371
323 38
324 389
324 325
324 109
324 38
324 132
325 192
325 270
325 191
325 326
325 184
326 327
326 287
326 343
326 187
326 335
327 89
327 127
327 53
327 328
327 308
328 25
328 73
328 27
328 329
328 92
329 330
329 45
329 386
329 190
329 392
330 291
330 331
330 101
330 18
330 158
331 354
331 287
331 332
331 241
331 1
332 21
332 339
332 90
332 333
332 315
333 334
333 226
333 119
333 78
333 191
334 198
334 335
334 393
334 396
334 123
335 45
335 133
335 138
335 336
335 341
336 280
336 158
336 337
336 232
336 76
337 338
337 59
337 34
337 130
337 356
338 367
338 196
338 94
338 132
338 339
339 192
339 340
339 22
339 34
339 97
340 179
340 272
340 341
340 307
340 155
341 271
341 105
341 342
341 387
341 237
342 160
342 356
342 343
342 281
342 323
343 130
343 344
343 102
343 125
343 281
344 261
344 256
344 133
344 345
344 55
345 346
345 123
345 364
345 267
345 166
346 339
346 14
346 350
346 347
347 348
347 161
347 75
347 177
347 137
348 48
348 68
348 141
348 245
348 349
349 350
349 40
349 336
349 232
349 110
350 4
350 363
350 351
350 100
350 7
351 323
351 167
351 352
351 321
351 99
352 11
352 355
352 218
352 66
352 353
353 86
353 354
353 174
353 307
353 130
354 355
354 384
354 59
354 14
354 137
355 22
355 44
355 325
355 356
355 398
356 194
356 355
356 151
356 357
356 50
357 100
357 19
357 358
357 63
357 138
358 64
358 14
358 359
358 361
358 271
359 135
359 360
359 191
359 253
359 318
360 36
360 380
360 361
360 118
360 161
361 176
361 8
361 362
361 371
361 257
362 207
362 320
362 96
362 78
362 363
363 59
363 337
363 79
363 364
363 102
364 226
364 365
364 69
364 196
364 186
365 174
365 40
365 241
365 366
365 175
366 302
366 58
366 67
366 367
366 353
367 368
367 258
367 201
367 231
367 125
368 121
368 53
368 292
368 369
368 1
369 89
369 132
369 326
369 195
369 370
370 371
370 354
370 369
370 347
370 296
371 298
371 265
371 101
371 78
371 372
372 271
372 190
372 373
372 115
372 222
373 374
373 280
373 231
373 79
373 291
374 400
374 235
374 45
374 375
374 321
375 198
375 209
375 344
375 339
375 376
376 286
376 377
376 159
376 96
376 318
377 225
377 336
377 378
377 286
377 363
378 366
378 266
378 379
378 102
378 122
379 63
379 234
379 260
379 380
379 14
380 200
380 228
380 381
380 378
380 76
381 366
381 66
381 382
381 217
381 275
382 383
382 254
382 348
382 135
382 66
383 140
383 52
383 384
383 297
383 81
384 385
384 354
384 77
384 285
384 61
385 378
385 132
385 31
385 386
385 254
386 222
386 247
386 5
386 37
386 387
387 50
387 132
387 388
387 68
387 146
388 120
388 303
388 6
388 350
388 389
389 256
389 235
389 390
389 28
389 91
390 292
390 224
390 143
390 339
390 391
391 90
391 392
391 335
391 45
391 165
392 345
392 56
392 235
392 393
392 366
393 75
393 100
393 15
393 156
393 394
394 286
394 267
394 227
394 395
395 367
395 188
395 294
395 396
395 290
396 397
396 128
396 334
396 271
396 168
397 280
397 175
397 398
397 31
397 395
398 120
398 399
398 81
398 70
398 272
399 80
399 288
399 400
399 334
399 173
400 1
400 81
400 254
400 38
400 119
